Route #1: 6
Route #2: 10 41 56 52 13 61 24 60 16 8 46
Route #3: 26 35 21 44 39 36 40 50 31 59 55 37 9
Route #4: 38 18 22 12 43 28 27 7
Route #5: 25 29 45 15 11 57
Route #6: 47 63 58 2 54 5
Route #7: 62 51 20
Route #8: 33 48 42 32
Route #9: 53 3 30 14 1 17
Route #10: 4 23 34 19 49
cost: 1620.6236808849387
